sat
(
  (define-fun R () String
    "")
  (define-fun L () String
    "a")
  (define-fun H () String
    "aaa")
  (define-fun V () String
    "bbaa")
  (define-fun G () String
    "a")
  (define-fun Q () String
    "")
  (define-fun J () String
    "aaaa")
  (define-fun P () String
    "aab")
  (define-fun M () String
    "aab")
  (define-fun N () String
    "")
)
